objective value:                     1.25119069575578
x(0,8,0)                                            1 	(obj:0)
x(1,3,1)                                            1 	(obj:0)
x(2,8,2)                                            1 	(obj:0)
x(3,5,1)                                            1 	(obj:0)
x(4,5,0)                                            1 	(obj:0)
x(4,12,2)                                           1 	(obj:0)
x(5,10,0)                                           1 	(obj:0)
x(5,11,1)                                           1 	(obj:0)
x(8,4,0)                                            1 	(obj:0)
x(8,4,2)                                            1 	(obj:0)
x(10,0,0)                                           1 	(obj:0)
x(11,1,1)                                           1 	(obj:0)
x(12,2,2)                                           1 	(obj:0)
xc(0,9)                                             1 	(obj:0)
xc(2,12)                                            1 	(obj:0)
xc(3,7)                                             1 	(obj:0)
u(0,2)                               1.25119069575578 	(obj:0)
u(1,2)                               1.25119069575578 	(obj:0)
u(3,1)                              0.165761741939678 	(obj:0)
u(4,0)                                 0.459531234795 	(obj:0)
u(4,2)                              0.718855870944578 	(obj:0)
u(5,0)                              0.727616276877077 	(obj:0)
u(5,1)                              0.758918227195478 	(obj:0)
u(8,0)                                0.2992183261997 	(obj:0)
u(8,2)                              0.488527024911999 	(obj:0)
u(10,0)                              1.25119069575578 	(obj:0)
u(10,1)                             0.866128503679846 	(obj:0)
u(10,2)                             0.204739177710099 	(obj:0)
u(11,0)                             0.866128503679846 	(obj:0)
u(11,1)                              1.25119069575578 	(obj:0)
u(11,2)                             0.297757934577801 	(obj:0)
u(12,0)                             0.701515258260901 	(obj:0)
u(12,1)                             0.826791000533099 	(obj:0)
u(12,2)                              1.25119069575578 	(obj:0)
u(13,0)                             0.866128503679846 	(obj:0)
u(13,1)                               0.1646494068052 	(obj:0)
u(13,2)                               0.3645573585062 	(obj:0)
u(14,0)                                0.378864820273 	(obj:0)
u(14,1)                             0.469348785817999 	(obj:0)
u(15,0)                               0.4047840174873 	(obj:0)
u(15,1)                               0.4273947433161 	(obj:0)
u(16,0)                               0.4373705342463 	(obj:0)
u(16,1)                                0.492700719816 	(obj:0)
u(17,0)                               0.8235126528393 	(obj:0)
u(17,1)                               0.1200402168373 	(obj:0)
u(17,2)                               0.2436082050564 	(obj:0)
u(18,0)                               0.2747463335559 	(obj:0)
u(18,1)                             0.622142435330099 	(obj:0)
u(19,0)                             0.222674836237601 	(obj:0)
u(19,1)                             0.866128503679846 	(obj:0)
u(19,2)                                0.348946222457 	(obj:0)
f(0,9,0)                                            1 	(obj:0)
f(0,9,1)                                            1 	(obj:0)
f(0,9,2)                                            1 	(obj:0)
f(0,9,3)                                            1 	(obj:0)
f(0,9,4)                                            1 	(obj:0)
f(1,3,1)                                            1 	(obj:0)
f(1,3,2)                                            1 	(obj:0)
f(2,8,0)                                            1 	(obj:0)
f(2,8,2)                                            1 	(obj:0)
f(2,8,3)                                            1 	(obj:0)
f(3,5,1)                                            1 	(obj:0)
f(3,5,2)                                            1 	(obj:0)
f(3,5,3)                                            1 	(obj:0)
f(4,5,2)                                            1 	(obj:0)
f(4,5,4)                                            1 	(obj:0)
f(4,12,0)                                           1 	(obj:0)
f(4,12,3)                                           1 	(obj:0)
f(5,10,1)                                           1 	(obj:0)
f(5,10,2)                                           1 	(obj:0)
f(5,10,3)                                           1 	(obj:0)
f(5,10,4)                                           1 	(obj:0)
f(5,11,2)                                           1 	(obj:0)
f(8,4,0)                                            1 	(obj:0)
f(8,4,2)                                            1 	(obj:0)
f(8,4,3)                                            1 	(obj:0)
f(10,0,1)                                           1 	(obj:0)
f(10,0,2)                                           1 	(obj:0)
f(10,0,3)                                           1 	(obj:0)
f(10,0,4)                                           1 	(obj:0)
f(11,1,2)                                           1 	(obj:0)
f(12,2,0)                                           1 	(obj:0)
f(12,2,3)                                           1 	(obj:0)
z_r(0,)                              1.25119069575578 	(obj:0)
z_r(1,)                              1.25119069575578 	(obj:0)
z_r(2,)                              1.25119069575578 	(obj:0)
z                                    1.25119069575578 	(obj:1)
